(set-logic QF_FP)
(declare-fun X () (_ FloatingPoint 11 53))
(declare-fun Y () (_ FloatingPoint 9 53))
(assert (fp.lt X (fp #b0 #b10011111111 #x0000000000000)))
(assert (= Y ((_ to_fp 9 53) RNE X)))
(assert (not (distinct Y (_ +oo 9 53))))
(check-sat)
